\Problem name:                                                                  
\FICO Xpress v9.2.5, Community, written 14:39:11, Jan 10, 2024

Minimize
__OBJ___: 3 x1 + 4 x2 + 5 x3

Subject To
row1: x1 + x3 >= -2.4 
row2: x1 + x3 >= -3 
row3: x2 + x3 = 4 
constr_04: x2 + x3 <= 5 

Bounds
-1 <= x1 <= 3 
-1 <= x2 <= 5 
-1 <= x3 <= 8 

End
